
Gurobi 9.0.1 (linux64) logging started Fri May  1 08:36:33 2020

Gurobi Optimizer version 9.0.1 build v9.0.1rc0 (linux64)
Optimize a model with 5063 rows, 4412 columns and 23494 nonzeros
Model fingerprint: 0xbd3fb15b
Variable types: 0 continuous, 4412 integer (4352 binary)
Coefficient statistics:
  Matrix range     [1e+00, 2e+01]
  Objective range  [3e+00, 1e+02]
  Bounds range     [1e+00, 1e+00]
  RHS range        [1e+00, 2e+01]

User MIP start produced solution with objective 980 (0.01s)
Loaded user MIP start with objective 980

Presolve removed 3544 rows and 752 columns
Presolve time: 2.39s
Presolved: 1519 rows, 3660 columns, 12090 nonzeros
Variable types: 0 continuous, 3660 integer (3630 binary)

Root relaxation: objective 5.048000e+02, 959 iterations, 0.02 seconds

    Nodes    |    Current Node    |     Objective Bounds      |     Work
 Expl Unexpl |  Obj  Depth IntInf | Incumbent    BestBd   Gap | It/Node Time

     0     0  504.80000    0   54  980.00000  504.80000  48.5%     -    2s
     0     0  640.50000    0   84  980.00000  640.50000  34.6%     -    2s
     0     0  640.50000    0   84  980.00000  640.50000  34.6%     -    2s
     0     0  648.63333    0   86  980.00000  648.63333  33.8%     -    2s
     0     0  655.13333    0   73  980.00000  655.13333  33.1%     -    2s
     0     0  655.13333    0   73  980.00000  655.13333  33.1%     -    2s
     0     0  656.80000    0   79  980.00000  656.80000  33.0%     -    2s
     0     0  657.00000    0   73  980.00000  657.00000  33.0%     -    2s
     0     0  657.00000    0   75  980.00000  657.00000  33.0%     -    2s
     0     0  657.00000    0   82  980.00000  657.00000  33.0%     -    2s
     0     0  657.00000    0   86  980.00000  657.00000  33.0%     -    2s
     0     0  657.00000    0   85  980.00000  657.00000  33.0%     -    2s
     0     0  657.00000    0   85  980.00000  657.00000  33.0%     -    2s
     0     0  657.00000    0   69  980.00000  657.00000  33.0%     -    3s
H    0     0                     976.0000000  657.00000  32.7%     -    3s
     0     0  657.00000    0   70  976.00000  657.00000  32.7%     -    3s
     0     0  657.04444    0   87  976.00000  657.04444  32.7%     -    3s
     0     0  657.04444    0   61  976.00000  657.04444  32.7%     -    3s
H    0     0                     767.0000000  657.04444  14.3%     -    5s
  1190   438  745.73810   20   19  767.00000  664.89683  13.3%  18.1   10s
  1630   659  671.00476   17   50  767.00000  670.35714  12.6%  21.3   15s
H 1980   559                     758.0000000  678.19048  10.5%  20.3   15s
H 2319   211                     748.0000000  678.19048  9.33%   2.3   17s
  2736   374  742.05714   85   32  748.00000  678.28571  9.32%   4.5   20s
H 2754   341                     747.0000000  678.28571  9.20%   4.6   20s
H 2845   326                     743.0000000  679.36508  8.56%   4.9   20s
H 3551   179                     722.0000000  686.09524  4.97%   6.4   23s
H 3842   244                     718.0000000  689.71429  3.94%   6.9   24s
H 3886   233                     716.0000000  690.14286  3.61%   7.0   24s
  4111   251  697.19048   42   58  716.00000  692.78738  3.24%   7.5   25s

Cutting planes:
  Learned: 6
  Gomory: 8
  Cover: 34
  Implied bound: 40
  Clique: 1
  MIR: 8
  StrongCG: 2
  Flow cover: 34
  Inf proof: 3
  Zero half: 7
  RLT: 5
  Relax-and-lift: 1

Explored 5368 nodes (97201 simplex iterations) in 28.66 seconds
Thread count was 1 (of 40 available processors)

Solution count 10: 716 718 722 ... 980

Optimal solution found (tolerance 1.00e-04)
Best objective 7.160000000000e+02, best bound 7.160000000000e+02, gap 0.0000%

User-callback calls 17549, time in user-callback 0.02 sec
